c File: instances/38_0.55_1.col
c
c Description: Random graph of size 38 vertices and P(0.5499999999999999) of edges between any two vertices.
p col 38 703
e 1 3
e 1 5
e 1 6
e 1 9
e 1 10
e 1 12
e 1 13
e 1 14
e 1 15
e 1 17
e 1 18
e 1 21
e 1 22
e 1 23
e 1 24
e 1 25
e 1 27
e 1 30
e 1 31
e 1 32
e 1 33
e 1 34
e 1 36
e 1 37
e 1 38
e 2 4
e 2 5
e 2 8
e 2 9
e 2 10
e 2 12
e 2 14
e 2 15
e 2 16
e 2 17
e 2 18
e 2 19
e 2 20
e 2 22
e 2 23
e 2 24
e 2 25
e 2 26
e 2 27
e 2 28
e 2 29
e 2 31
e 2 33
e 2 34
e 2 38
e 3 4
e 3 7
e 3 8
e 3 9
e 3 11
e 3 12
e 3 13
e 3 16
e 3 17
e 3 18
e 3 20
e 3 21
e 3 27
e 3 30
e 3 34
e 3 36
e 3 38
e 4 5
e 4 6
e 4 7
e 4 10
e 4 13
e 4 14
e 4 15
e 4 17
e 4 19
e 4 20
e 4 23
e 4 25
e 4 26
e 4 27
e 4 28
e 4 31
e 4 32
e 4 33
e 4 35
e 4 37
e 5 7
e 5 9
e 5 12
e 5 15
e 5 16
e 5 17
e 5 19
e 5 21
e 5 22
e 5 23
e 5 24
e 5 25
e 5 26
e 5 28
e 5 29
e 5 30
e 5 31
e 5 32
e 5 33
e 5 35
e 5 36
e 5 37
e 5 38
e 6 7
e 6 10
e 6 12
e 6 13
e 6 14
e 6 15
e 6 16
e 6 17
e 6 18
e 6 19
e 6 20
e 6 22
e 6 23
e 6 27
e 6 28
e 6 30
e 6 32
e 6 35
e 6 37
e 6 38
e 7 8
e 7 9
e 7 13
e 7 15
e 7 21
e 7 22
e 7 25
e 7 28
e 7 29
e 7 32
e 7 33
e 7 34
e 7 35
e 7 36
e 7 37
e 7 38
e 8 10
e 8 11
e 8 12
e 8 14
e 8 16
e 8 17
e 8 21
e 8 22
e 8 24
e 8 25
e 8 27
e 8 33
e 8 34
e 8 36
e 8 38
e 9 10
e 9 11
e 9 13
e 9 14
e 9 16
e 9 17
e 9 23
e 9 24
e 9 26
e 9 27
e 9 33
e 9 34
e 9 35
e 9 36
e 10 12
e 10 17
e 10 20
e 10 23
e 10 24
e 10 25
e 10 26
e 10 27
e 10 29
e 10 30
e 10 33
e 10 34
e 10 36
e 10 38
e 11 14
e 11 16
e 11 18
e 11 20
e 11 21
e 11 23
e 11 25
e 11 26
e 11 27
e 11 28
e 11 29
e 11 31
e 11 32
e 11 36
e 11 38
e 12 13
e 12 14
e 12 15
e 12 16
e 12 19
e 12 20
e 12 21
e 12 22
e 12 24
e 12 27
e 12 32
e 12 33
e 12 34
e 12 36
e 12 37
e 13 14
e 13 15
e 13 16
e 13 17
e 13 18
e 13 19
e 13 23
e 13 26
e 13 27
e 13 30
e 13 34
e 13 35
e 14 15
e 14 19
e 14 24
e 14 25
e 14 27
e 14 28
e 14 29
e 14 30
e 14 32
e 14 33
e 14 35
e 14 36
e 14 37
e 14 38
e 15 16
e 15 18
e 15 20
e 15 21
e 15 23
e 15 24
e 15 25
e 15 29
e 15 31
e 15 33
e 15 34
e 15 35
e 15 37
e 15 38
e 16 17
e 16 18
e 16 21
e 16 22
e 16 25
e 16 26
e 16 29
e 16 30
e 16 31
e 16 32
e 16 36
e 16 37
e 17 21
e 17 22
e 17 23
e 17 24
e 17 26
e 17 27
e 17 29
e 17 30
e 17 33
e 17 34
e 17 35
e 18 19
e 18 20
e 18 22
e 18 23
e 18 24
e 18 25
e 18 30
e 18 32
e 18 35
e 18 37
e 19 20
e 19 21
e 19 22
e 19 23
e 19 25
e 19 26
e 19 29
e 19 30
e 19 31
e 19 32
e 19 35
e 19 36
e 19 37
e 20 21
e 20 22
e 20 23
e 20 25
e 20 29
e 20 30
e 20 32
e 20 33
e 20 34
e 20 37
e 20 38
e 21 22
e 21 23
e 21 24
e 21 26
e 21 27
e 21 29
e 21 31
e 21 33
e 21 36
e 21 38
e 22 23
e 22 25
e 22 34
e 22 35
e 22 37
e 22 38
e 23 24
e 23 25
e 23 26
e 23 28
e 23 33
e 23 35
e 24 25
e 24 31
e 24 33
e 24 37
e 24 38
e 25 26
e 25 27
e 25 29
e 25 31
e 25 32
e 25 35
e 25 36
e 25 37
e 25 38
e 26 28
e 26 29
e 26 31
e 26 32
e 26 33
e 26 34
e 26 36
e 26 37
e 27 28
e 27 29
e 27 30
e 27 34
e 27 36
e 28 29
e 28 30
e 28 31
e 28 37
e 28 38
e 29 31
e 29 32
e 29 34
e 29 37
e 29 38
e 30 32
e 30 35
e 30 38
e 31 32
e 31 36
e 31 37
e 31 38
e 32 34
e 32 35
e 32 37
e 32 38
e 33 36
e 33 37
e 34 35
e 34 36
e 34 38
e 35 36
e 35 38
e 36 37
e 37 38